20	5
0	5	2	3	5	1	4
1	1	18
2	1	13
3	2	12	7
4	1	16
5	3	8	15	13
6	2	12	11
7	2	15	17
8	4	18	16	19	10
9	2	20	14
10	1	6
11	1	21
12	1	21
13	1	21
14	1	21
15	1	21
16	1	21
17	1	21
18	1	21
19	1	21
20	1	21
21	0
0	0	0	0	0	0	0
1	2	0	4	0	4	3
2	7	0	0	0	2	3
3	9	1	2	0	0	4
4	8	2	0	4	3	1
5	5	0	2	1	3	1
6	3	0	2	0	3	0
7	6	3	0	0	2	3
8	10	3	1	2	5	3
9	2	2	1	3	1	4
10	6	0	3	1	3	3
11	5	3	4	3	5	2
12	4	0	0	0	5	4
13	10	1	2	5	4	5
14	6	2	4	5	5	2
15	7	4	2	2	5	3
16	8	2	5	3	0	4
17	5	0	0	2	4	0
18	9	4	0	0	4	1
19	3	3	1	2	0	4
20	9	1	5	1	5	4
21	0	0	0	0	0	0
8	7	9	12	9
